VACCINE = Vaccine(1..2);
m = 24;
age = [CHILD, ANCIENT, AGED, CHILD, ADULT, SENIOR, BABY, BABY, ANCIENT, AGED, YOUTH, AGED, ADULT, YOUTH, YOUTH, SENIOR, CHILD, AGED, ADULT, CHILD, CHILD, CHILD, CHILD, AGED];
gender = [OTHER, MALE, MALE, OTHER, MALE, OTHER, OTHER, MALE, FEMALE, FEMALE, OTHER, FEMALE, MALE, MALE, OTHER, OTHER, MALE, FEMALE, MALE, FEMALE, OTHER, OTHER, FEMALE, MALE];
health = [GOOD, COMPROMISED, GOOD, GOOD, GOOD, COMPROMISED, GOOD, POOR, GOOD, POOR, COMPROMISED, COMPROMISED, COMPROMISED, COMPROMISED, POOR, POOR, GOOD, POOR, COMPROMISED, POOR, GOOD, GOOD, POOR, POOR];
exposure = [HIGH, LOW, AVERAGE, HIGH, EXTREME, HIGH, LOW, AVERAGE, LOW, AVERAGE, EXTREME, LOW, HIGH, HIGH, EXTREME, HIGH, EXTREME, LOW, EXTREME, AVERAGE, HIGH, EXTREME, LOW, AVERAGE];
size = [6, 10, 6, 10, 10, 9, 9, 6, 10, 9, 8, 7, 5, 9, 9, 9, 5, 8, 8, 6, 10, 10, 7, 9];
minsize = 5;
age_group_min = [1, 1, 0, 1, 1, 1, 0];
age_group_max = [10, 9, 15, 18, 17, 24, 17];
max_people_diff = 31;
max_share_vaccines = 2;
health_information = {15, 22, 23};
exposure_information = {4, 11, 14, 20};